StudentsNr = 5;
InstructorsNr = 3;
DaysNr = 1;
SlotsPerDay = 10;
AvailabilitySlotsLenght = 2;
RoomNr = 1;
ProgrammNr = 2;
DegreeNr = 1;
RolesNr = 2;
CoursesNr = 4;
InstructorsProgramm = [{2}, {1, 2}, {1, 2}];
InstructorRolesPerProgramm = [|{3}, {}|{3}, {}|];
InstructorsAvailability = [|0, 0, 1, 1, 1, |0, 0, 0, 0, 1, |1, 0, 0, 1, 1|];
StudentsProgramm = [2, 1, 1, 2, 2];
StudentsDegree = [1, 1, 1, 1, 1];
StudentsSupervisorId = [1, 3, 3, 2, 3];
StudentsCourseIds = [{2}, {4}, {4}, {3}, {2}];
StudentsAvailability = [|1, 1, 0, 0, 1, |1, 1, 1, 1, 1, |1, 1, 1, 0, 0, |0, 1, 0, 0, 1, |0, 0, 0, 0, 1|];
TheoryticalMinCard = [1, 1, 1, 1, 0];
CoursesInstructorIds = [{1, 2}, {3}, {1, 2}, {1}];
RolesDemands = [1, 0];
RolesContinuity = [];
ExamLen = [2, 2, 2, 2, 2];
LunchTsMinLen = 1;
LunchStarts = [5..6];
SupervisorAvailable = 5;
OptimalLunchLenght = [2, 1];
OptimalStartTs = [1, 2];
OptimalFinishTs = [1, 9];
MinimizeRooms = 300;
RolesSoftContinuity = [|1, 2|0, 2|];
SameDegreeInRoom = 20;
Mergeability = 2;
